(set-logic HORN)
(declare-fun state (Int Int Int Bool (Array Int Int) Int Int Int (Array Int Int) Int Int Int (Array Int Int) Int (Array Int Int) Bool Bool Bool Int Int (Array Int Int) Int Int Int) Bool)
(assert (forall ((|R_0| Int) (|A_2| Int) (|C_2| Int) (|.y.19| Bool) (|.y.20| (Array Int Int)) (|.y.21| Int) (|.y.22| Int) (|.y.23| Int) (|.y.24| (Array Int Int)) (|.y.25| Int) (|.y.26| Int) (|.y.27| Int) (|.y.28| (Array Int Int)) (|.y.29| Int) (|.y.30| (Array Int Int)) (|.loc.31| Bool) (|.loc.32| Bool) (|.loc.33| Bool) (|D_1| Int) (|F_1| Int) (|G_1| (Array Int Int)) (|H_1| Int) (|N_1| Int) (|Y_0| Int) (|.loc.49| Bool) (|.loc.51| Bool) (|.y.40| Int) (|.y.39| Int) (|.y.35| Int) (|.y.36| Int) (|.y.34| Int) (|.y.37| Bool) (|.y.41| Int) (|.loc.50| Bool) (|.y.47| Int) (|.y.43| Int) (|.y.46| (Array Int Int)) (|.y.38| (Array Int Int)) (|.y.42| (Array Int Int)) (|.y.44| Int) (|.y.45| Int) (|.y.48| (Array Int Int)) (|.xtv.1| Int) (|.xtv.2| Int) (|.xtv.3| (Array Int Int)) (|.xtv.4| Int) (|.xtv.5| Int) (|.xtv.6| Int)) (=> (and (not .loc.33) (and (not .loc.32) (not .loc.31))) (state |R_0| |A_2| |C_2| |.y.19| |.y.20| |.y.21| |.y.22| |.y.23| |.y.24| |.y.25| |.y.26| |.y.27| |.y.28| |.y.29| |.y.30| |.loc.31| |.loc.32| |.loc.33| |D_1| |F_1| |G_1| |H_1| |N_1| |Y_0|))))
(assert (forall ((|R_0| Int) (|A_2| Int) (|C_2| Int) (|.y.19| Bool) (|.y.20| (Array Int Int)) (|.y.21| Int) (|.y.22| Int) (|.y.23| Int) (|.y.24| (Array Int Int)) (|.y.25| Int) (|.y.26| Int) (|.y.27| Int) (|.y.28| (Array Int Int)) (|.y.29| Int) (|.y.30| (Array Int Int)) (|.loc.31| Bool) (|.loc.32| Bool) (|.loc.33| Bool) (|D_1| Int) (|F_1| Int) (|G_1| (Array Int Int)) (|H_1| Int) (|N_1| Int) (|Y_0| Int) (|.loc.49| Bool) (|.loc.51| Bool) (|.y.40| Int) (|.y.39| Int) (|.y.35| Int) (|.y.36| Int) (|.y.34| Int) (|.y.37| Bool) (|.y.41| Int) (|.loc.50| Bool) (|.y.47| Int) (|.y.43| Int) (|.y.46| (Array Int Int)) (|.y.38| (Array Int Int)) (|.y.42| (Array Int Int)) (|.y.44| Int) (|.y.45| Int) (|.y.48| (Array Int Int)) (|.xtv.1| Int) (|.xtv.2| Int) (|.xtv.3| (Array Int Int)) (|.xtv.4| Int) (|.xtv.5| Int) (|.xtv.6| Int)) (=> (and (state |R_0| |A_2| |C_2| |.y.19| |.y.20| |.y.21| |.y.22| |.y.23| |.y.24| |.y.25| |.y.26| |.y.27| |.y.28| |.y.29| |.y.30| |.loc.31| |.loc.32| |.loc.33| |D_1| |F_1| |G_1| |H_1| |N_1| |Y_0|) (let ((.def_35 (not .loc.32))) (let ((.def_36 (not .loc.31))) (let ((.def_37 (and .def_35 .def_36))) (let ((.def_57 (<= N_1 0))) (let ((.def_61 (not (<= D_1 0)))) (let ((.def_63 (<= F_1 0))) (let ((.def_65 (not .def_63))) (let ((.def_72 (* (- 1) F_1))) (let ((.def_82 (store .y.24 (+ A_2 .y.23) D_1))) (let ((.def_83 (store .def_82 F_1 0))) (let ((.def_87 (and .y.19 .loc.31))) (let ((.def_89 (<= A_2 0))) (let ((.def_90 (not .def_89))) (let ((.def_96 (or .def_89 (not (<= (+ A_2 .y.23) 0))))) (let ((.def_98 (not .y.19))) (let ((.def_102 (<= (+ R_0 (* (- 1) .y.23)) 1))) (let ((.def_104 (or .def_65 .def_89))) (let ((.def_109 (store .y.28 (+ C_2 .y.27) .y.25))) (let ((.def_112 (not (= .y.25 (select .def_109 D_1))))) (let ((.def_114 (and .def_36 (and .y.19 .loc.32)))) (let ((.def_116 (<= C_2 0))) (let ((.def_117 (not .def_116))) (let ((.def_122 (= (+ C_2 (+ .y.21 (* (- 1) D_1))) 0))) (let ((.def_126 (or .def_116 (not (<= (+ C_2 .y.27) 0))))) (let ((.def_128 (<= .y.26 1))) (let ((.def_130 (or .def_61 .def_116))) (let ((.def_145 (<= .y.25 0))) (let ((.def_152 (<= .y.29 0))) (let ((.def_154 (and .loc.31 .loc.32))) (let ((.def_160 (not .def_152))) (let ((.def_162 (not .def_145))) (let ((.def_166 (not .loc.49))) (let ((.def_189 (not .loc.51))) (let ((.def_199 (not .loc.50))) (let ((.def_205 (<= .y.43 0))) (let ((.def_208 (<= .y.41 0))) (let ((.def_237 (= .y.39 0))) (let ((.def_259 (= R_0 .y.34))) (let ((.def_261 (= A_2 .y.35))) (let ((.def_263 (= C_2 .y.36))) (let ((.def_265 (= .y.19 .y.37))) (let ((.def_268 (= .y.21 .y.39))) (let ((.def_286 (and .def_35 .def_87))) (let ((.def_332 (= R_0 .y.41))) (let ((.def_334 (= A_2 .y.43))) (let ((.def_336 (= C_2 .y.47))) (let ((.def_364 (= .y.25 .y.43))) (and (not .loc.33) (or (or (or (or (or (or (or (and (or (and (or (or (and .def_35 (or (and .def_36 (and (not (= R_0 (select (store G_1 H_1 0) N_1))) (and (= (+ H_1 (+ (* (- 1) N_1) (* (- 1) Y_0))) 0) (and (= (+ F_1 (* (- 1) Y_0)) 1) (and (or (not (<= H_1 0)) .def_57) (and (and (and (not .def_57) .def_61) .def_63) .def_65)))))) (and (and (and (and (and (= (+ A_2 (+ .def_72 H_1)) 0) (and (= (+ R_0 (* (- 1) H_1)) 1) (and (and (not (= .y.21 (select .def_83 A_2))) .def_87) .def_90))) .def_96) .def_98) .def_102) .def_104))) (and (and (and (and (and (and .def_112 .def_114) .def_117) .def_122) .def_126) .def_128) .def_130)) (and (and (and (not (= (select .y.28 (+ (+ .y.21 .y.25) 1)) (select .y.30 (+ (+ .y.22 .y.29) (- 1))))) (and (or (not (<= (+ .y.21 .y.25) (- 1))) .def_145) (and (not (<= (- 1) (+ .y.21 (* (- 1) .y.23)))) (and (or (not (<= (+ .y.22 .y.29) 1)) .def_152) (and .def_98 .def_154))))) .def_160) .def_162)) (and .def_166 .loc.51)) (and (= A_2 .y.40) (and (= R_0 .y.39) (and (not (<= .y.35 0)) (and (not (<= .y.36 0)) (and (= (not (<= .y.34 0)) .y.37) (and (= .y.41 0) (and (and .loc.49 (and .def_37 .y.37)) .def_189)))))))) .def_199) (and (not (<= .y.47 0)) (and (or .def_61 .def_205) (and (and (not .def_205) (and (not .def_208) (and .def_208 (and (= .y.37 (not (= R_0 (select .y.46 .y.43)))) (and (= (+ .y.40 (* (- 1) .y.41)) (- 1)) (and (= (+ D_1 (+ (* (- 1) .y.40) (* (- 1) .y.43))) 0) (and (= .y.46 (store G_1 D_1 0)) (and .def_189 (and .loc.50 (and .def_37 .loc.49)))))))))) .def_237)))) (and (= .y.22 .y.40) (and (and (= .y.20 .y.38) (and (and (and (and (and (not .def_102) (and (= (+ .y.23 (* (- 1) .y.41)) (- 1)) (and (= .def_82 .y.42) (and .def_189 (and .def_96 (and .def_90 (and .def_199 (and .loc.49 (and .loc.31 .def_35))))))))) .def_259) .def_261) .def_263) .def_265)) .def_268))) (and (= .y.20 .y.46) (and (= R_0 .y.44) (and (= .y.45 0) (and (= .def_83 .y.42) (and (= (+ R_0 (* (- 1) .y.39)) 1) (and (= (+ A_2 (+ .def_72 .y.39)) 0) (and (= .y.43 (select .y.42 A_2)) (and .def_265 (and .def_263 (and .def_261 (and .def_259 (and .def_189 (and .def_104 (and .def_102 (and .def_96 (and .def_90 (and .def_166 (and .loc.50 .def_286))))))))))))))))))) (and (and (and (and (= .y.20 .y.48) (and (= .y.37 (not (= .y.21 (select .y.46 A_2)))) (and (= (+ R_0 (* (- 1) .y.40)) 1) (and (= (+ A_2 (+ .def_72 .y.40)) 0) (and (= .def_83 .y.46) (and .def_237 (and .def_189 (and .def_104 (and .def_102 (and .def_98 (and .def_96 (and .def_90 (and .loc.50 (and .loc.49 .def_286)))))))))))))) .def_332) .def_334) .def_336)) (and (and (= .y.24 .y.42) (and (not .def_128) (and (= (+ .y.27 (* (- 1) .y.45)) (- 1)) (and (= (+ .y.26 (* (- 1) .y.44)) 1) (and (= .def_109 .y.46) (and .def_268 (and .def_265 (and .def_263 (and .def_261 (and .def_259 (and .def_189 (and .def_126 (and .def_117 (and .def_166 (and .loc.50 (and .loc.32 .def_36)))))))))))))))) .def_364)) (and (= .y.24 .y.46) (and (= .def_109 .y.48) (and (= .y.21 .y.40) (and (= .def_112 .y.37) (and .def_336 (and .def_334 (and .def_332 (and .def_237 (and .def_189 (and .def_130 (and .def_128 (and .def_126 (and .def_122 (and .def_117 (and .loc.50 (and .def_114 .loc.49))))))))))))))))) (and (= .y.30 .y.48) (and (= .y.29 .y.47) (and (= .y.28 .y.46) (and (= .y.23 .y.41) (and (= (+ .y.22 (+ .y.29 .def_72)) 1) (and (= (+ .y.21 (+ .y.25 (* (- 1) D_1))) (- 1)) (and (or .def_61 .def_145) (and (or .def_65 .def_152) (and (not (<= (+ .y.23 (+ .y.25 (* (- 1) D_1))) 0)) (and (= (+ .y.25 (+ (* (- 1) D_1) .y.39)) 0) (and (= (+ .y.29 (+ .def_72 .y.40)) 0) (and (= .y.37 (not (= (select .y.30 F_1) (select .y.28 D_1)))) (and .def_364 (and .def_189 (and .def_162 (and .def_160 (and .def_98 (and .loc.50 (and .def_154 .loc.49))))))))))))))))))))))))))))))))))))))))))))))))))))))))))))))))))))) (state |.y.34| |.y.35| |.y.36| |.y.37| |.y.38| |.y.39| |.y.40| |.y.41| |.y.42| |.y.43| |.y.44| |.y.45| |.y.46| |.y.47| |.y.48| |.loc.49| |.loc.50| |.loc.51| |.xtv.1| |.xtv.2| |.xtv.3| |.xtv.4| |.xtv.5| |.xtv.6|))))
(assert (forall ((|R_0| Int) (|A_2| Int) (|C_2| Int) (|.y.19| Bool) (|.y.20| (Array Int Int)) (|.y.21| Int) (|.y.22| Int) (|.y.23| Int) (|.y.24| (Array Int Int)) (|.y.25| Int) (|.y.26| Int) (|.y.27| Int) (|.y.28| (Array Int Int)) (|.y.29| Int) (|.y.30| (Array Int Int)) (|.loc.31| Bool) (|.loc.32| Bool) (|.loc.33| Bool) (|D_1| Int) (|F_1| Int) (|G_1| (Array Int Int)) (|H_1| Int) (|N_1| Int) (|Y_0| Int) (|.loc.49| Bool) (|.loc.51| Bool) (|.y.40| Int) (|.y.39| Int) (|.y.35| Int) (|.y.36| Int) (|.y.34| Int) (|.y.37| Bool) (|.y.41| Int) (|.loc.50| Bool) (|.y.47| Int) (|.y.43| Int) (|.y.46| (Array Int Int)) (|.y.38| (Array Int Int)) (|.y.42| (Array Int Int)) (|.y.44| Int) (|.y.45| Int) (|.y.48| (Array Int Int)) (|.xtv.1| Int) (|.xtv.2| Int) (|.xtv.3| (Array Int Int)) (|.xtv.4| Int) (|.xtv.5| Int) (|.xtv.6| Int)) (=> (state |R_0| |A_2| |C_2| |.y.19| |.y.20| |.y.21| |.y.22| |.y.23| |.y.24| |.y.25| |.y.26| |.y.27| |.y.28| |.y.29| |.y.30| |.loc.31| |.loc.32| |.loc.33| |D_1| |F_1| |G_1| |H_1| |N_1| |Y_0|) (not (and .loc.33 (and (not .loc.32) (not .loc.31)))))))
(check-sat)
